
Log started (V22.1.1.0) Sat May 31 06:05:25 2025


Problem '/tmp/d14da62ed98149e4a79eaea8a4cfa12a-pulp.lp' read.
Read time = 0.01 sec. (0.49 ticks)
New value for time limit in seconds: 1
Version identifier: 22.1.1.0 | 2022-11-28 | 9160aff4d
CPXPARAM_TimeLimit                               1
Tried aggregator 1 time.
MIP Presolve modified 1200 coefficients.
Reduced MIP has 4272 rows, 4200 columns, and 20220 nonzeros.
Reduced MIP has 4140 binaries, 60 generals, 0 SOSs, and 0 indicators.
Presolve time = 0.01 sec. (9.72 ticks)
Probing time = 0.02 sec. (4.34 ticks)
Cover probing fixed 0 vars, tightened 60 bounds.
Tried aggregator 1 time.
Detecting symmetries...
MIP Presolve eliminated 10 rows and 0 columns.
MIP Presolve modified 1180 coefficients.
Reduced MIP has 4262 rows, 4200 columns, and 20200 nonzeros.
Reduced MIP has 4140 binaries, 60 generals, 0 SOSs, and 0 indicators.
Presolve time = 0.01 sec. (12.47 ticks)

        Nodes                                         Cuts/
   Node  Left     Objective  IInf  Best Integer    Best Bound    ItCnt     Gap

      0     1  -1.00000e+37     0                    146.0000        0         

Root node processing (before b&c):
  Real time             =    0.26 sec. (95.65 ticks)
Parallel b&c, 4 threads:
  Real time             =    0.00 sec. (0.00 ticks)
  Sync time (average)   =    0.00 sec.
  Wait time (average)   =    0.00 sec.
                          ------------
Total (root+branch&cut) =    0.26 sec. (95.65 ticks)


MIP - Aborted, no integer solution.
Current MIP best bound =  1.4600000000e+02 (gap is infinite)
Solution time =    0.26 sec.  Iterations = 0  Nodes = 0 (1)
Deterministic time = 95.67 ticks  (366.61 ticks/sec)

CPLEX Error  1217: No solution exists.
No changes made.
Version identifier: 22.1.1.0 | 2022-11-28 | 9160aff4d
CPXPARAM_TimeLimit                               1
Probing fixed 0 vars, tightened 6 bounds.
Probing time = 0.03 sec. (8.31 ticks)
Cover probing fixed 0 vars, tightened 42 bounds.
Clique table members: 1551.
MIP emphasis: balance optimality and feasibility.
MIP search method: dynamic search.
Parallel mode: deterministic, using up to 4 threads.
Root relaxation solution time = 0.03 sec. (20.12 ticks)

        Nodes                                         Cuts/
   Node  Left     Objective  IInf  Best Integer    Best Bound    ItCnt     Gap

      0     0      281.0000    82                    281.0000      258         
      0     0      281.0000    51                   Cuts: 501      449         
      0     0      281.0000    54                   Cuts: 643      679         
